s td 216 13 279
b 1 7 9 257
b 2 9 18 243
b 3 9 20 202
b 4 24 181 275
b 5 9 29 248
b 6 32 207 247
b 7 9 37 246
b 8 9 53 145
b 9 56 100 192
b 10 68 82 275
b 11 9 71 75
b 12 79 136 275
b 13 81 133 232
b 14 83 100 118
b 15 89 92 256
b 16 9 99 104
b 17 9 116 233
b 18 10 121 247
b 19 9 124 138
b 20 9 128 220
b 21 150 232 275
b 22 9 153 229
b 23 9 163 201
b 24 154 157 186
b 25 133 136 204
b 26 133 136 232 275
b 27 9 15 100
b 28 15 100 136
b 29 6 10 215 247
b 30 89 154 210 256
b 31 15 133 136 275
b 32 54 154 157 165
b 33 54 207 247 279
b 34 1 15 27 49 127 133 135 146 171 210 222 244 275
b 35 8 15 17 27 49 127 133 135 146 171 214 222 275
b 36 8 15 17 27 49 127 133 146 161 171 214 222 275
b 37 8 15 17 27 49 67 133 146 161 171 214 222 275
b 38 8 15 17 27 49 67 78 133 146 161 222 263 275
b 39 15 17 27 49 67 78 133 146 161 235 249 263 275
b 40 15 27 49 67 78 133 146 161 194 235 249 263 275
b 41 15 27 49 67 78 133 146 161 185 194 235 249 275
b 42 15 27 49 67 78 111 133 146 185 194 235 249 275
b 43 15 27 49 59 67 111 133 146 185 194 235 249 275
b 44 15 27 48 49 59 111 133 146 185 194 249 251 275
b 45 15 27 48 49 58 80 133 146 185 194 249 251 275
b 46 15 27 28 38 48 49 58 66 80 133 146 249 275
b 47 15 27 28 38 48 49 58 66 98 133 146 249 275
b 48 15 27 28 38 48 49 58 66 98 133 146 184 275
b 49 15 27 28 38 48 49 66 98 130 133 146 184 275
b 50 15 27 28 48 49 52 66 98 130 133 146 184 275
b 51 15 27 49 52 66 93 98 130 133 146 184 219 275
b 52 15 27 49 52 93 98 130 133 146 218 219 275
b 53 15 27 49 51 52 93 98 133 146 218 219 245 275
b 54 15 27 49 51 93 98 133 146 191 218 219 245 275
b 55 15 27 49 51 98 112 133 146 191 218 219 245 275
b 56 15 27 49 51 112 133 146 191 219 241 245 266 275
b 57 15 27 49 51 84 133 146 148 191 219 241 266 275
b 58 15 27 49 51 84 91 133 146 148 188 191 266 275
b 59 15 27 49 84 86 91 133 146 148 188 191 199 275
b 60 12 15 27 49 84 86 91 133 146 188 191 199 275
b 61 12 15 27 49 86 88 133 146 188 191 199 275 276
b 62 12 15 27 49 86 88 133 146 175 188 191 275 276
b 63 12 15 27 49 88 133 146 175 188 191 209 275 276
b 64 12 15 27 49 88 133 146 175 191 209 269 275 276
b 65 15 27 49 105 133 146 175 191 209 213 269 275 276
b 66 2 105 191 213 276
b 67 15 27 49 74 105 133 146 175 209 213 260 269 275
b 68 15 27 49 74 105 133 146 166 175 213 260 269 275
b 69 15 27 49 74 105 133 146 166 169 175 213 260 275
b 70 15 27 49 74 105 106 125 133 146 166 169 260 275
b 71 15 27 49 50 65 74 106 125 133 146 169 275
b 72 15 27 49 50 65 106 125 133 134 146 169 275 277
b 73 15 27 49 50 65 133 134 146 147 169 238 275 277
b 74 15 27 49 50 65 120 133 134 146 147 238 275 277
b 75 15 27 49 65 120 133 134 146 147 151 238 275 277
b 76 15 27 49 65 107 120 133 134 146 147 151 275 277
b 77 15 27 49 57 65 107 120 133 134 146 147 151 275
b 78 15 27 49 57 65 107 120 133 146 147 197 273 275
b 79 15 27 49 57 65 107 120 133 146 197 255 273 275
b 80 15 27 49 57 107 120 133 146 182 197 255 273 275
b 81 15 27 49 62 107 120 133 146 182 197 255 273 275
b 82 15 27 49 62 120 133 146 155 182 197 255 273 275
b 83 15 27 49 62 63 120 133 146 155 182 255 273 275
b 84 15 27 33 49 62 63 133 146 155 182 255 273 275
b 85 15 27 33 41 49 63 133 146 155 182 255 273 275
b 86 15 27 33 41 49 63 133 146 170 176 182 255 275
b 87 15 26 27 33 41 49 131 133 146 162 170 176 275
b 88 15 26 27 33 41 49 131 133 146 162 176 193 275
b 89 15 26 27 33 41 49 123 131 133 146 162 193 275
b 90 15 26 27 41 49 123 131 133 146 162 193 217 275
b 91 15 26 27 41 49 109 123 131 133 146 193 217 275
b 92 13 15 27 49 60 109 123 131 133 146 193 217 275
b 93 13 15 27 49 60 109 123 133 146 195 216 217 275
b 94 15 27 40 49 60 114 122 123 133 146 195 216 275
b 95 15 27 40 49 60 94 114 122 133 146 195 205 275
b 96 15 27 40 49 94 96 114 122 133 146 167 205 275
b 97 15 27 40 49 94 96 97 114 133 146 167 205 275
b 98 15 27 49 94 96 97 114 133 146 167 183 205 275
b 99 15 27 49 94 96 97 119 133 146 183 205 228 275
b 100 15 27 49 94 96 97 119 133 146 183 228 242 275
b 101 15 27 49 97 119 133 146 183 228 242 250 258 275
b 102 5 15 27 49 97 119 133 146 183 228 250 258 275
b 103 5 15 27 49 119 133 146 183 226 228 250 258 275
b 104 5 15 27 49 119 133 146 183 226 228 250 259 275
b 105 3 15 183 226 228 259
b 106 3 15 90 226 259
b 107 5 15 27 49 119 133 146 226 250 259 271 275
b 108 5 15 27 49 85 101 119 133 146 259 271 275
b 109 5 15 19 27 49 85 101 119 133 146 271 275
b 110 5 15 19 27 49 85 101 119 133 146 172 275
b 111 5 15 19 27 47 49 101 119 133 146 172 275
b 112 5 15 19 27 39 47 49 101 133 146 172 275
b 113 5 15 19 27 39 47 49 101 133 146 268 275
b 114 5 15 27 39 47 49 101 133 146 196 268 275
b 115 5 15 27 39 47 49 133 146 177 196 268 275
b 116 5 15 27 39 49 113 133 146 177 196 268 275
b 117 15 27 49 113 133 146 177 196 225 254 268 275
b 118 15 27 49 76 113 133 146 177 225 254 268 275
b 119 15 27 49 64 76 113 133 146 177 225 254 275
b 120 15 27 49 64 76 113 133 164 177 225 254 275
b 121 15 49 64 76 133 164 177 225 265
b 122 49 76 140 164 177 225 265
b 123 4 76 140 177 225
b 124 45 49 140 164 265
b 125 15 27 49 64 76 113 133 164 225 240 254 275
b 126 15 49 64 76 113 164 190 225 240 254 275
b 127 15 36 49 76 113 164 190 225 240 254
b 128 36 69 164 190 254
b 129 36 49 76 113 126 190 225 240
b 130 36 49 76 126 190 198 240
b 131 36 76 126 159 190 198
b 132 36 76 126 159 178
b 133 49 64 102 190 275
b 134 15 27 49 76 133 160 225 240 275
b 135 15 49 76 160 225 261 275
b 136 15 47 119 172 180
b 137 15 85 133 146 172 275 278
b 138 15 85 110 275 278
b 139 46 49 226 250 271
b 140 15 27 49 87 133 226 228 258 275
b 141 27 87 133 221 226 275
b 142 228 242 250 252 258
b 143 96 119 189 205 228
b 144 40 96 97 167 239
b 145 15 49 96 122 133 139 146 167 275
b 146 72 122 133 139 146 275
b 147 25 49 60 94 122 195 205
b 148 15 40 44 114 122 123 216
b 149 13 49 109 195 216 217 236
b 150 13 15 60 103 131 193 217
b 151 15 26 27 43 49 133 162 217 275
b 152 15 26 43 49 162 174 275
b 153 26 131 142 162 170
b 154 49 63 143 170 176 182 255
b 155 15 33 62 63 155 156
b 156 33 62 149 155 156
b 157 15 49 120 155 197 224 275
b 158 27 50 61 120 133 146 238 275
b 159 27 31 50 61 133 238 275
b 160 15 95 147 169 238
b 161 15 50 106 125 134 152 277
b 162 49 50 65 70 74
b 163 15 105 106 125 166 200 260
b 164 15 49 133 144 146 166 213 260 269 275
b 165 15 49 144 166 211 213 269 275
b 166 14 49 166 211 269
b 167 49 74 209 213 260 270
b 168 74 209 213 264 270
b 169 88 188 209 234 276
b 170 86 88 175 206 276
b 171 15 27 49 86 91 132 133 148 199 275
b 172 15 86 91 132 148 253
b 173 55 86 91 148 253
b 174 27 117 132 133 199 275
b 175 15 51 91 129 188 266
b 176 51 91 129 188 203
b 177 49 84 148 158 219 241 266
b 178 15 49 112 133 146 168 241 245 266 275
b 179 15 21 49 112 168 241 245 275
b 180 15 21 112 137 241
b 181 93 115 191 218 245
b 182 51 52 218 223 245
b 183 15 35 66 93 130 184 219
b 184 15 27 28 38 49 130 133 272 275
b 185 23 27 130 133 272 275
b 186 28 38 98 249 267
b 187 28 34 38 66 80
b 188 49 58 80 185 194 251 274
b 189 15 48 59 108 111 194 251
b 190 15 42 49 133 146 194 235 263 275
b 191 42 133 146 194 231 275
b 192 17 179 235 249 263
b 193 8 78 222 237 263
b 194 8 15 22 27 49 67 133 171 214 275
b 195 22 27 49 73 133 214 275
b 196 49 73 133 173 214
b 197 8 22 49 67 171 230
b 198 8 67 141 171 230
b 199 8 11 127 161 214
b 200 8 17 135 208 214
b 201 1 15 27 49 133 135 146 171 210 222 244 262 275
b 202 15 27 49 133 135 171 210 222 244 262 275 279
b 203 15 27 49 133 135 210 215 222 244 262 275 279
b 204 6 15 27 49 133 210 215 222 262 275 279
b 205 6 15 27 49 133 210 215 222 247 275 279
b 206 6 15 27 49 133 165 210 222 247 275 279
b 207 15 27 49 133 165 210 212 247 275 279
b 208 15 49 133 154 165 210 212 247 275 279
b 209 15 49 77 133 154 165 212 247 279
b 210 49 54 77 154 165 247 279
b 211 15 49 154 210 212 247 256 275
b 212 15 49 187 212 247 256 275
b 213 15 16 133 146 244 262 275
b 214 16 30 133 146 262 275
b 215 1 127 210 227 244
b 216 275
1 27
2 27
3 27
4 216
5 27
6 33
7 27
8 27
9 28
10 216
11 27
12 31
13 26
14 28
15 30
16 27
17 27
18 29
19 27
20 27
21 26
22 27
23 27
24 32
25 31
26 31
27 28
28 31
29 205
30 211
31 34
32 210
33 210
34 216
34 35
34 201
34 215
35 36
35 200
36 37
36 199
37 38
37 194
38 39
38 193
39 40
39 192
40 41
40 190
41 42
42 43
43 44
44 45
44 189
45 46
45 188
46 47
46 187
47 48
47 186
48 49
49 50
49 184
50 51
51 52
51 183
52 53
53 54
53 182
54 55
54 181
55 56
56 57
56 178
57 58
57 177
58 59
58 175
59 60
59 171
60 61
61 62
62 63
62 170
63 64
63 169
64 65
65 66
65 67
67 68
67 167
68 69
68 164
69 70
70 71
70 163
71 72
71 162
72 73
72 161
73 74
73 160
74 75
74 158
75 76
76 77
77 78
78 79
79 80
80 81
81 82
82 83
82 157
83 84
84 85
84 155
85 86
86 87
86 154
87 88
87 153
88 89
89 90
90 91
90 151
91 92
92 93
92 150
93 94
93 149
94 95
94 148
95 96
95 147
96 97
96 145
97 98
97 144
98 99
99 100
99 143
100 101
101 102
101 142
102 103
103 104
103 140
104 105
104 107
105 106
107 108
107 139
108 109
109 110
110 111
110 137
111 112
111 136
112 113
113 114
114 115
115 116
116 117
117 118
118 119
119 120
120 121
120 125
121 122
122 123
122 124
125 126
125 134
126 127
126 133
127 128
127 129
129 130
130 131
131 132
134 135
137 138
140 141
145 146
151 152
155 156
158 159
164 165
165 166
167 168
171 172
171 174
172 173
175 176
178 179
179 180
184 185
190 191
194 195
194 197
195 196
197 198
201 202
201 213
202 203
203 204
204 205
205 206
206 207
207 208
208 209
208 211
209 210
211 212
213 214
